 $CONTRL COORD=CART UNITS=ANGS $END
 $DATA
TEST
Put symmetry info here

Xx     0.0     0.39670   0.19630  -0.59270 
Xx     0.0    -0.21180   1.19610   0.30940 
Xx     0.0    -0.71970   0.93230   1.49150 
Xx     0.0    -1.19740   2.01180   2.40010 
Xx     0.0    -0.64290   3.36490   1.97280 
Xx     0.0    -0.80070   3.50110   0.47480 
Xx     0.0    -0.30180   4.79890  -0.04750 
Xx     0.0     0.81050  -2.10380  -0.96590 
Xx     0.0    -1.63820   1.72970   4.71190 
Xx     0.0    -0.98720   1.56040   6.04130 
Xx     0.0     1.15320   4.00520   3.40050 
Xx     0.0     2.62380   3.91690   3.59040 
Xx     0.0    -0.83100   6.19250  -1.87460 
Xx     0.0    -1.45580   6.28080  -3.21050 
O      8.0     1.04120   0.46980  -1.57660 
O      8.0     0.17990  -1.04030  -0.17190 
O      8.0    -0.74750   1.72850   3.73450 
O      8.0     0.77540   3.42260   2.25440 
O      8.0    -0.09000   2.45470  -0.22760 
O      8.0    -0.83020   4.98660  -1.36540 
O      8.0    -2.78080   1.86830   4.51050 
O      8.0     0.39590   4.53150   4.15850 
O      8.0    -0.34600   7.08190  -1.27700 
 $END


