$comment
TEST
$end

$molecule
0 1
0 0.3967 0.1963 -0.5927
0 -0.2118 1.1961 0.3094
0 -0.7197 0.9323 1.4915
0 -1.1974 2.0118 2.4001
0 -0.6429 3.3649 1.9728
0 -0.8007 3.5011 0.4748
0 -0.3018 4.7989 -0.0475
0 0.8105 -2.1038 -0.9659
0 -1.6382 1.7297 4.7119
0 -0.9872 1.5604 6.0413
0 1.1532 4.0052 3.4005
0 2.6238 3.9169 3.5904
0 -0.831 6.1925 -1.8746
0 -1.4558 6.2808 -3.2105
8 1.0412 0.4698 -1.5766
8 0.1799 -1.0403 -0.1719
8 -0.7475 1.7285 3.7345
8 0.7754 3.4226 2.2544
8 -0.09 2.4547 -0.2276
8 -0.8302 4.9866 -1.3654
8 -2.7808 1.8683 4.5105
8 0.3959 4.5315 4.1585
8 -0.346 7.0819 -1.277
$end

$rem
$end
