 $CONTRL COORD=CART UNITS=ANGS $END
 $DATA
pdb/TRP.pdb
Put symmetry info here

N      7.0    19.46000  15.40700  20.11600 
C      6.0    19.48700  16.87200  20.00100 
C      6.0    20.25700  17.06000  18.68800 
O      8.0    21.38900  17.54300  18.67700 
C      6.0    20.21300  17.54100  21.18700 
C      6.0    19.67900  17.18500  22.54800 
C      6.0    20.23400  16.47200  23.57300 
C      6.0    18.38900  17.59400  23.03900 
N      7.0    19.37400  16.37600  24.63300 
C      6.0    18.21500  17.03300  24.31600 
C      6.0    17.34100  18.32500  22.44200 
C      6.0    17.03600  17.19800  25.04300 
C      6.0    16.17700  18.52800  23.18900 
C      6.0    16.02600  17.94800  24.45000 
 $END


