$comment
pdb/TRP.pdb
$end

$molecule
0 1
7 19.46 15.407 20.116
6 19.487 16.872 20.001
6 20.257 17.06 18.688
8 21.389 17.543 18.677
6 20.213 17.541 21.187
6 19.679 17.185 22.548
6 20.234 16.472 23.573
6 18.389 17.594 23.039
7 19.374 16.376 24.633
6 18.215 17.033 24.316
6 17.341 18.325 22.442
6 17.036 17.198 25.043
6 16.177 18.528 23.189
6 16.026 17.948 24.45
$end

$rem
$end
