 $CONTRL COORD=CART UNITS=ANGS $END
 $DATA
gamout/benzenesulfonamide.gamout
Put symmetry info here

C      6.0    -5.26395  -1.26219   1.18036 
C      6.0    -4.03359  -0.65935   0.67189 
C      6.0    -2.89770  -0.12565   1.23848 
C      6.0    -2.08464   0.30335   0.08211 
N      7.0    -2.76686   0.00993  -1.06380 
O      8.0    -3.90797  -0.56143  -0.73378 
N      7.0    -0.84387   0.91268   0.18549 
S     16.0     0.24818   1.25419  -1.00464 
O      8.0     0.53211   2.63059  -0.93599 
O      8.0    -0.13438   0.73577  -2.24483 
C      6.0     1.58814   0.41475  -0.43588 
C      6.0     2.56475   1.05639   0.33753 
C      6.0     3.69125   0.37922   0.78383 
C      6.0     3.84987  -0.97623   0.44810 
C      6.0     2.88731  -1.64137  -0.33474 
C      6.0     1.77413  -0.93680  -0.76683 
O      8.0     4.92721  -1.71690   0.85303 
H      1.0    -5.66297  -2.01475   0.45434 
H      1.0    -5.06843  -1.76459   2.15986 
H      1.0    -6.04167  -0.46963   1.32946 
H      1.0    -2.62746  -0.02538   2.28261 
H      1.0    -0.64339   1.17220   1.12572 
H      1.0     2.44043   2.12812   0.57941 
H      1.0     4.45289   0.89541   1.38495 
H      1.0     3.03469  -2.69939  -0.59416 
H      1.0     1.02254  -1.44279  -1.40055 
H      1.0     5.52219  -1.14194   1.35869 
 $END


