$comment
gamout/benzenesulfonamide.gamout
$end

$molecule
0 1
6 -5.26395 -1.26219 1.18036
6 -4.03359 -0.65935 0.671887
6 -2.8977 -0.125651 1.23848
6 -2.08464 0.303351 0.0821084
7 -2.76686 0.00992669 -1.0638
8 -3.90797 -0.561432 -0.73378
7 -0.843873 0.912684 0.185492
16 0.248176 1.25419 -1.00464
8 0.532111 2.63059 -0.935994
8 -0.134383 0.735765 -2.24483
6 1.58814 0.414746 -0.435883
6 2.56475 1.05639 0.337534
6 3.69125 0.379223 0.783831
6 3.84987 -0.976225 0.448098
6 2.88731 -1.64137 -0.334737
6 1.77413 -0.936796 -0.766835
8 4.92721 -1.7169 0.853027
1 -5.66297 -2.01475 0.454338
1 -5.06843 -1.76459 2.15986
1 -6.04167 -0.469633 1.32946
1 -2.62746 -0.0253832 2.28261
1 -0.643386 1.1722 1.12572
1 2.44043 2.12812 0.579413
1 4.45289 0.895406 1.38495
1 3.03469 -2.69939 -0.594158
1 1.02254 -1.44279 -1.40055
1 5.52219 -1.14194 1.35869
$end

$rem
$end
