 $CONTRL COORD=CART UNITS=ANGS $END
 $DATA
mopout/Ethanol.mopout
Put symmetry info here

C      6.0     0.00000   0.00000   0.00000 
C      6.0     1.51150   0.00000   0.00000 
O      8.0     1.93420   1.35520   0.00000 
H      1.0    -0.37160  -1.05160   0.00040 
H      1.0    -0.39040   0.52560   0.90350 
H      1.0    -0.38730   0.52740  -0.90380 
H      1.0     1.90590  -0.52250   0.91310 
H      1.0     1.90620  -0.52210  -0.91320 
H      1.0     2.89770   1.34500   0.00000 
 $END


