$comment
mopout/Ethanol.mopout
$end

$molecule
0 1
6 0 0 0
6 1.5115 0 0
8 1.9342 1.3552 0
1 -0.3716 -1.0516 0.0004
1 -0.3904 0.5256 0.9035
1 -0.3873 0.5274 -0.9038
1 1.9059 -0.5225 0.9131
1 1.9062 -0.5221 -0.9132
1 2.8977 1.345 0
$end

$rem
$end
