$comment
YOHIMBINE
$end

$molecule
0 1
6 -0.4699 2.1336 0
6 0.6808 1.2945 0
6 -0.4507 3.5768 0
7 -1.7261 1.5582 0
7 2.1144 1.9466 0
6 0.6808 -0.3692 0
6 -2.2151 3.9699 0
6 0.7911 4.3343 0
6 -2.7521 2.4788 0
6 3.1453 1.2034 0
6 2.1 3.6199 0
6 1.774 -1.074 0
6 -3.1932 4.9145 0
6 -4.2624 2.0857 0
6 3.1453 -0.5226 0
6 1.7884 -2.7281 0
6 -4.7035 4.5645 0
6 -5.2357 3.0302 0
6 4.3535 -1.2034 0
6 3.0302 -3.5768 0
6 0.4267 -3.4473 0
6 4.3535 -2.9391 0
8 3.0062 -5.3124 0
8 -0.887 -2.685 0
8 0.4267 -5.0679 0
6 -2.0809 -3.6487 0
1 -0.513 0.5706 0
1 0.4027 -1.774 0
1 4.8857 0.139 0
$end

$rem
$end
