$comment
xyz\test.xyz
$end

$molecule
0 1
7 -7.602 6.108 1.647
6 -9.071 6.157 1.695
6 -9.572 7.462 1.048
8 -10.569 7.458 0.325
6 -9.591 6.022 3.133
$end

$rem
$end
