 $CONTRL COORD=CART UNITS=ANGS $END
 $DATA
xyz\test.xyz
Put symmetry info here

N      7.0    -7.60200   6.10800   1.64700 
C      6.0    -9.07100   6.15700   1.69500 
C      6.0    -9.57200   7.46200   1.04800 
O      8.0    -10.56900   7.45800   0.32500 
C      6.0    -9.59100   6.02200   3.13300 
 $END


