$comment
jout/3-pyrrole.jout
$end

$molecule
0 1
7 3.5978 0.692815 0.0131425
6 2.45329 -0.0799946 -0.00465419
6 2.87019 -1.40675 -0.0185349
6 4.29139 -1.42005 -0.00876283
6 4.71601 -0.108304 0.0104021
1 2.2247 -2.27543 -0.0356133
1 4.92904 -2.29355 -0.0156584
1 5.70771 0.319762 0.0225007
1 -1.34499 2.71281 -0.0133173
7 -0.00496606 -0.269538 -0.000462931
6 -1.14142 0.513509 -0.00303173
6 -0.710671 1.83594 -0.00957592
6 0.706746 1.83392 -0.0117111
6 1.1337 0.510274 -0.00585037
1 1.34355 2.70898 -0.0184247
1 -5.71596 0.335655 0.00123654
1 -4.94429 -2.27998 0.0145122
1 -2.23982 -2.2694 0.0126712
7 -3.60503 0.702854 -0.00219433
6 -4.72539 -0.0952058 0.00285787
6 -4.30425 -1.40822 0.00948981
6 -2.88297 -1.39884 0.00845057
6 -2.46259 -0.0731227 0.00116057
1 -3.6096 1.71104 -0.00739122
1 -0.00644033 -1.27777 0.0062519
1 3.60495 1.70089 0.0270257
$end

$rem
$end
