$comment

$end

$molecule
0 1
26 48.383 46.236 8.805
6 45.25 44.835 8.746
6 49.767 43.058 9.239
6 51.494 47.596 9.369
6 46.954 49.33 9.469
7 47.637 44.383 9.035
6 46.327 43.971 8.902
6 46.258 42.55 8.906
6 47.485 42.056 9.087
6 48.394 43.207 9.166
6 47.973 40.603 9.153
6 44.93 41.749 8.753
6 44.303 41.36 10.083
6 43.051 40.436 9.906
8 42.801 39.953 8.809
8 42.539 40.312 11.048
7 50.233 45.474 9.367
6 50.61 44.156 9.214
6 52.081 44.082 9.183
6 52.538 45.305 9.263
6 51.404 46.224 9.331
6 52.838 42.737 9.164
6 53.984 45.855 9.175
6 55.049 45.087 9.27
7 49.066 48.055 9.38
6 50.412 48.454 9.385
6 50.495 49.891 9.471
6 49.253 50.352 9.559
6 48.35 49.209 9.566
6 51.813 50.716 9.442
6 48.74 51.83 9.585
6 48.644 52.37 10.777
7 46.466 46.939 9.163
6 46.138 48.263 9.151
6 44.685 48.361 8.978
6 44.231 47.119 8.796
6 45.336 46.189 8.914
6 43.907 49.697 8.962
6 42.75 46.658 8.644
6 42.201 46.514 7.273
6 40.67 46.066 7.251
8 40.175 46.31 6.181
8 40.321 45.436 8.262
$end

$rem
$end
