%cmem=20000000
%#Put Keywords Here, check Charge and Multiplicity

XX 

  0  1
Fe         48.38300        46.23600         8.80500 
C          45.25000        44.83500         8.74600 
C          49.76700        43.05800         9.23900 
C          51.49400        47.59600         9.36900 
C          46.95400        49.33000         9.46900 
N          47.63700        44.38300         9.03500 
C          46.32700        43.97100         8.90200 
C          46.25800        42.55000         8.90600 
C          47.48500        42.05600         9.08700 
C          48.39400        43.20700         9.16600 
C          47.97300        40.60300         9.15300 
C          44.93000        41.74900         8.75300 
C          44.30300        41.36000        10.08300 
C          43.05100        40.43600         9.90600 
O          42.80100        39.95300         8.80900 
O          42.53900        40.31200        11.04800 
N          50.23300        45.47400         9.36700 
C          50.61000        44.15600         9.21400 
C          52.08100        44.08200         9.18300 
C          52.53800        45.30500         9.26300 
C          51.40400        46.22400         9.33100 
C          52.83800        42.73700         9.16400 
C          53.98400        45.85500         9.17500 
C          55.04900        45.08700         9.27000 
N          49.06600        48.05500         9.38000 
C          50.41200        48.45400         9.38500 
C          50.49500        49.89100         9.47100 
C          49.25300        50.35200         9.55900 
C          48.35000        49.20900         9.56600 
C          51.81300        50.71600         9.44200 
C          48.74000        51.83000         9.58500 
C          48.64400        52.37000        10.77700 
N          46.46600        46.93900         9.16300 
C          46.13800        48.26300         9.15100 
C          44.68500        48.36100         8.97800 
C          44.23100        47.11900         8.79600 
C          45.33600        46.18900         8.91400 
C          43.90700        49.69700         8.96200 
C          42.75000        46.65800         8.64400 
C          42.20100        46.51400         7.27300 
C          40.67000        46.06600         7.25100 
O          40.17500        46.31000         6.18100 
O          40.32100        45.43600         8.26200 

