$comment

$end

$molecule
0 1
8 0 0 0
6 -1.43 0 0
6 0.904701 0 1.22393
8 1.80727 1.1038 1.33298
6 1.48614 1.08908 1.94554
6 0.524132 0.699144 0.83245
8 0.490637 1.94562 1.72251
8 1.43109 -0.424734 1.79786
6 -0.0640939 -0.093007 1.83522
8 -1.44688 -0.103463 1.44072
6 -1.25466 0.709258 1.91752
8 -2.44149 0.978448 2.54014
$end

$rem
$end
