$comment

$end

$molecule
0 1
8 0 0 0
6 -1.43 0 0
6 0.904702 0 1.22393
8 1.80727 1.1038 1.33298
6 1.48615 1.08908 1.94554
6 0.524131 0.699147 0.832451
8 0.49064 1.94562 1.72251
8 1.4311 -0.424735 1.79786
6 -0.0640914 -0.0930113 1.83522
8 -1.44688 -0.10347 1.44073
6 -1.25466 0.709248 1.91753
8 -2.44149 0.97844 2.54015
$end

$rem
$end
