 $CONTRL COORD=CART UNITS=ANGS $END
 $DATA

Put symmetry info here

O      8.0     0.00000   0.00000   0.00000 
C      6.0    -1.43000   0.00000   0.00000 
C      6.0     0.90470   0.00000   1.22393 
O      8.0     1.80727   1.10380   1.33298 
C      6.0     1.48614   1.08908   1.94554 
C      6.0     0.52413   0.69914   0.83245 
O      8.0     0.49064   1.94562   1.72251 
O      8.0     1.43109  -0.42473   1.79786 
C      6.0    -0.06409  -0.09301   1.83522 
O      8.0    -1.44688  -0.10346   1.44072 
C      6.0    -1.25466   0.70926   1.91752 
O      8.0    -2.44149   0.97845   2.54014 
 $END


