$comment

$end

$molecule
0 1
6 10.62 -9.0918 0
6 10.62 -10.0442 0
6 9.7951 -8.6156 0
6 9.7951 -10.5204 0
6 8.9703 -9.0918 0
6 8.9703 -10.0442 0
6 12.2697 -9.0918 0
6 12.2697 -10.0442 0
7 11.4448 -10.5204 0
6 13.9193 -9.0918 0
6 13.9193 -10.0442 0
6 13.0944 -8.6156 0
6 13.0944 -10.5204 0
6 13.0944 -11.5995 0
6 11.4449 -8.6156 0
6 11.445 -7.6632 0
7 13.0945 -7.6633 0
6 14.8779 -7.6692 0
6 14.8817 -10.5999 0
1 12.269 -10.8259 0
1 13.1004 -9.5778 0
1 13.9199 -10.9525 0
6 15.4379 -11.5619 0
6 15.4344 -12.5871 0
$end

$rem
$end
