 $CONTRL COORD=CART UNITS=ANGS $END
 $DATA
qcout/3-thio.qcout
Put symmetry info here

S     16.0     3.93143  -1.08629  -0.02208 
C      6.0     2.66131   0.12983   0.00536 
C      6.0     3.21743   1.39213   0.02303 
C      6.0     4.64050   1.38951   0.01661 
C      6.0     5.17036   0.12911  -0.00562 
H      1.0     2.62077   2.29821   0.04224 
H      1.0     5.24355   2.29090   0.02933 
H      1.0     6.21134  -0.16444  -0.01403 
H      1.0    -1.30275  -2.42110   0.01880 
S     16.0     0.00003   0.96628  -0.00681 
C      6.0    -1.26643  -0.25249   0.00242 
C      6.0    -0.70797  -1.51370   0.01219 
C      6.0     0.70792  -1.51372   0.01430 
C      6.0     1.26643  -0.25253   0.00586 
H      1.0     1.30268  -2.42111   0.02369 
H      1.0    -6.21136  -0.16443  -0.00192 
H      1.0    -5.24340   2.29115  -0.01981 
H      1.0    -2.62061   2.29851  -0.01778 
S     16.0    -3.93153  -1.08640   0.00773 
C      6.0    -5.17035   0.12914  -0.00318 
C      6.0    -4.64042   1.38967  -0.01226 
C      6.0    -3.21733   1.39230  -0.01121 
C      6.0    -2.66128   0.12988  -0.00117 
 $END


