$comment
qcout/3-thio.qcout
$end

$molecule
0 1
16 3.93143 -1.08629 -0.022076
6 2.66131 0.129835 0.005362
6 3.21743 1.39213 0.023031
6 4.6405 1.38951 0.016607
6 5.17036 0.129107 -0.005617
1 2.62077 2.29821 0.042238
1 5.24355 2.2909 0.029327
1 6.21134 -0.164444 -0.014035
1 -1.30275 -2.4211 0.018801
16 3e-05 0.966284 -0.00681
6 -1.26643 -0.252495 0.002416
6 -0.707969 -1.5137 0.012192
6 0.707924 -1.51372 0.014304
6 1.26643 -0.252527 0.005864
1 1.30268 -2.42111 0.023695
1 -6.21136 -0.164432 -0.001917
1 -5.2434 2.29115 -0.019811
1 -2.62061 2.29851 -0.017785
16 -3.93153 -1.0864 0.007727
6 -5.17035 0.129142 -0.003176
6 -4.64042 1.38967 -0.012264
6 -3.21733 1.3923 -0.011211
6 -2.66128 0.129884 -0.001171
$end

$rem
$end
