$comment

$end

$molecule
0 1
$end

$rem
$end
