%cmem=20000000
%#Put Keywords Here, check Charge and Multiplicity

XX 

  0  1

