 $CONTRL COORD=CART UNITS=ANGS $END
 $DATA

Put symmetry info here

 $END


