$comment
1460
$end

$molecule
0 1
6 -0.0187 1.5258 0
6 0.0021 -0.0041 0
6 1.3951 2.0474 0
6 -1.4117 -0.5257 0
7 0.6897 -0.4778 0
6 1.7939 3.4511 0
7 2.4794 1.3258 0
8 -1.8061 -1.2208 0
8 -2.2329 -0.2181 0
6 3.202 3.4625 0
6 1.0919 4.6617 0
7 3.607 2.1534 0
6 3.8763 4.6812 0
6 1.7794 5.8405 0
6 3.169 5.8496 0
1 -0.5459 1.8868 0
1 -0.5289 1.8773 0
1 0.5293 -0.3651 0
1 0.1697 -0.1216 0
1 1.5905 -0.0237 0
1 -3.1401 -0.5528 0
1 0.012 4.663 0
1 4.5281 1.8493 0
1 4.9561 4.7023 0
1 1.2385 6.7752 0
1 3.6962 6.7922 0
$end

$rem
$end
