 $CONTRL COORD=CART UNITS=ANGS $END
 $DATA
1460
Put symmetry info here

C      6.0    -0.01870   1.52580   0.00000 
C      6.0     0.00210  -0.00410   0.00000 
C      6.0     1.39510   2.04740   0.00000 
C      6.0    -1.41170  -0.52570   0.00000 
N      7.0     0.68970  -0.47780   0.00000 
C      6.0     1.79390   3.45110   0.00000 
N      7.0     2.47940   1.32580   0.00000 
O      8.0    -1.80610  -1.22080   0.00000 
O      8.0    -2.23290  -0.21810   0.00000 
C      6.0     3.20200   3.46250   0.00000 
C      6.0     1.09190   4.66170   0.00000 
N      7.0     3.60700   2.15340   0.00000 
C      6.0     3.87630   4.68120   0.00000 
C      6.0     1.77940   5.84050   0.00000 
C      6.0     3.16900   5.84960   0.00000 
H      1.0    -0.54590   1.88680   0.00000 
H      1.0    -0.52890   1.87730   0.00000 
H      1.0     0.52930  -0.36510   0.00000 
H      1.0     0.16970  -0.12160   0.00000 
H      1.0     1.59050  -0.02370   0.00000 
H      1.0    -3.14010  -0.55280   0.00000 
H      1.0     0.01200   4.66300   0.00000 
H      1.0     4.52810   1.84930   0.00000 
H      1.0     4.95610   4.70230   0.00000 
H      1.0     1.23850   6.77520   0.00000 
H      1.0     3.69620   6.79220   0.00000 
 $END


