 $CONTRL COORD=CART UNITS=ANGS $END
 $DATA
xyz/buckyball.xyz
Put symmetry info here

C      6.0    -1.17573   1.42438   3.03142 
C      6.0     0.00000   0.69776   3.48093 
C      6.0     0.00000  -0.69776   3.48093 
C      6.0    -1.17573  -1.42438   3.03142 
C      6.0    -2.30467  -0.72682   2.60022 
C      6.0    -2.30467   0.72682   2.60022 
C      6.0     1.17573   1.42438   3.03142 
C      6.0     1.17573  -1.42438   3.03142 
C      6.0    -0.72682  -2.60022   2.30467 
C      6.0    -3.03142  -1.17573   1.42438 
C      6.0    -3.03142   1.17573   1.42438 
C      6.0    -0.72682   2.60022   2.30467 
C      6.0    -2.60022  -2.30467   0.72682 
C      6.0    -1.42438  -3.03142   1.17573 
C      6.0    -2.60022  -2.30467  -0.72682 
C      6.0    -0.69776  -3.48093   0.00000 
C      6.0     2.30467   0.72682   2.60022 
C      6.0     0.72682  -2.60022   2.30467 
C      6.0    -1.42438  -3.03142  -1.17573 
C      6.0     1.42438  -3.03142   1.17573 
C      6.0     2.30467  -0.72682   2.60022 
C      6.0    -3.48093   0.00000   0.69776 
C      6.0    -2.60022   2.30467   0.72682 
C      6.0     3.03142   1.17573   1.42438 
C      6.0    -1.42438   3.03142   1.17573 
C      6.0     0.72682   2.60022   2.30467 
C      6.0    -2.60022   2.30467  -0.72682 
C      6.0    -0.69776   3.48093   0.00000 
C      6.0     1.42438   3.03142   1.17573 
C      6.0     0.69776  -3.48093   0.00000 
C      6.0    -3.48093   0.00000  -0.69776 
C      6.0     3.03142  -1.17573   1.42438 
C      6.0    -1.42438   3.03142  -1.17573 
C      6.0     0.69776   3.48093   0.00000 
C      6.0     2.60022   2.30467   0.72682 
C      6.0     2.60022   2.30467  -0.72682 
C      6.0     3.48093   0.00000   0.69776 
C      6.0     2.60022  -2.30467   0.72682 
C      6.0     2.60022  -2.30467  -0.72682 
C      6.0     1.42438   3.03142  -1.17573 
C      6.0     0.72682   2.60022  -2.30467 
C      6.0     1.17573   1.42438  -3.03142 
C      6.0    -0.72682   2.60022  -2.30467 
C      6.0    -3.03142  -1.17573  -1.42438 
C      6.0     3.03142  -1.17573  -1.42438 
C      6.0    -3.03142   1.17573  -1.42438 
C      6.0    -2.30467   0.72682  -2.60022 
C      6.0     3.48093   0.00000  -0.69776 
C      6.0     1.42438  -3.03142  -1.17573 
C      6.0     0.72682  -2.60022  -2.30467 
C      6.0     3.03142   1.17573  -1.42438 
C      6.0     2.30467   0.72682  -2.60022 
C      6.0    -1.17573   1.42438  -3.03142 
C      6.0     0.00000   0.69776  -3.48093 
C      6.0     2.30467  -0.72682  -2.60022 
C      6.0    -2.30467  -0.72682  -2.60022 
C      6.0    -0.72682  -2.60022  -2.30467 
C      6.0     1.17573  -1.42438  -3.03142 
C      6.0    -1.17573  -1.42438  -3.03142 
C      6.0     0.00000  -0.69776  -3.48093 
 $END


