$comment
xyz/buckyball.xyz
$end

$molecule
0 1
6 -1.17573 1.42438 3.03142
6 0 0.69776 3.48093
6 0 -0.69776 3.48093
6 -1.17573 -1.42438 3.03142
6 -2.30467 -0.72682 2.60022
6 -2.30467 0.72682 2.60022
6 1.17573 1.42438 3.03142
6 1.17573 -1.42438 3.03142
6 -0.72682 -2.60022 2.30467
6 -3.03142 -1.17573 1.42438
6 -3.03142 1.17573 1.42438
6 -0.72682 2.60022 2.30467
6 -2.60022 -2.30467 0.72682
6 -1.42438 -3.03142 1.17573
6 -2.60022 -2.30467 -0.72682
6 -0.69776 -3.48093 0
6 2.30467 0.72682 2.60022
6 0.72682 -2.60022 2.30467
6 -1.42438 -3.03142 -1.17573
6 1.42438 -3.03142 1.17573
6 2.30467 -0.72682 2.60022
6 -3.48093 0 0.69776
6 -2.60022 2.30467 0.72682
6 3.03142 1.17573 1.42438
6 -1.42438 3.03142 1.17573
6 0.72682 2.60022 2.30467
6 -2.60022 2.30467 -0.72682
6 -0.69776 3.48093 0
6 1.42438 3.03142 1.17573
6 0.69776 -3.48093 0
6 -3.48093 0 -0.69776
6 3.03142 -1.17573 1.42438
6 -1.42438 3.03142 -1.17573
6 0.69776 3.48093 0
6 2.60022 2.30467 0.72682
6 2.60022 2.30467 -0.72682
6 3.48093 0 0.69776
6 2.60022 -2.30467 0.72682
6 2.60022 -2.30467 -0.72682
6 1.42438 3.03142 -1.17573
6 0.72682 2.60022 -2.30467
6 1.17573 1.42438 -3.03142
6 -0.72682 2.60022 -2.30467
6 -3.03142 -1.17573 -1.42438
6 3.03142 -1.17573 -1.42438
6 -3.03142 1.17573 -1.42438
6 -2.30467 0.72682 -2.60022
6 3.48093 0 -0.69776
6 1.42438 -3.03142 -1.17573
6 0.72682 -2.60022 -2.30467
6 3.03142 1.17573 -1.42438
6 2.30467 0.72682 -2.60022
6 -1.17573 1.42438 -3.03142
6 0 0.69776 -3.48093
6 2.30467 -0.72682 -2.60022
6 -2.30467 -0.72682 -2.60022
6 -0.72682 -2.60022 -2.30467
6 1.17573 -1.42438 -3.03142
6 -1.17573 -1.42438 -3.03142
6 0 -0.69776 -3.48093
$end

$rem
$end
