%cmem=20000000
%#Put Keywords Here, check Charge and Multiplicity

XX xyz/table.xyz

  0  1
H           7.30000         3.50000         0.00000 
He         -6.30000         3.50000         0.00000 
Li          7.30000         2.70000         0.00000 
Be          6.50000         2.70000         0.00000 
B          -2.30000         2.70000         0.00000 
C          -3.10000         2.70000         0.00000 
N          -3.90000         2.70000         0.00000 
O          -4.70000         2.70000         0.00000 
F          -5.50000         2.70000         0.00000 
Ne         -6.30000         2.70000         0.00000 
Na          7.30000         1.90000         0.00000 
Mg          6.50000         1.90000         0.00000 
Al         -2.30000         1.90000         0.00000 
Si         -3.10000         1.90000         0.00000 
P          -3.90000         1.90000         0.00000 
S          -4.70000         1.90000         0.00000 
Cl         -5.50000         1.90000         0.00000 
Ar         -6.30000         1.90000         0.00000 
K           7.30000         1.10000         0.00000 
Ca          6.50000         1.10000         0.00000 
Sc          5.70000         1.10000         0.00000 
Ti          4.90000         1.10000         0.00000 
V           4.10000         1.10000         0.00000 
Cr          3.30000         1.10000         0.00000 
Mn          2.50000         1.10000         0.00000 
Fe          1.70000         1.10000         0.00000 
Co          0.90000         1.10000         0.00000 
Ni          0.10000         1.10000         0.00000 
Cu         -0.70000         1.10000         0.00000 
Zn         -1.50000         1.10000         0.00000 
Ga         -2.30000         1.10000         0.00000 
Ge         -3.10000         1.10000         0.00000 
As         -3.90000         1.10000         0.00000 
Se         -4.70000         1.10000         0.00000 
Br         -5.50000         1.10000         0.00000 
Kr         -6.30000         1.10000         0.00000 
Rb          7.30000         0.30000         0.00000 
Sr          6.50000         0.30000         0.00000 
Y           5.70000         0.30000         0.00000 
Zr          4.90000         0.30000         0.00000 
Nb          4.10000         0.30000         0.00000 
Mo          3.30000         0.30000         0.00000 
Tc          2.50000         0.30000         0.00000 
Ru          1.70000         0.30000         0.00000 
Rh          0.90000         0.30000         0.00000 
Pd          0.10000         0.30000         0.00000 
Ag         -0.70000         0.30000         0.00000 
Cd         -1.50000         0.30000         0.00000 
In         -2.30000         0.30000         0.00000 
Sn         -3.10000         0.30000         0.00000 
Sb         -3.90000         0.30000         0.00000 
Te         -4.70000         0.30000         0.00000 
I          -5.50000         0.30000         0.00000 
Xe         -6.30000         0.30000         0.00000 
Cs          7.30000        -0.50000         0.00000 
Ba          6.50000        -0.50000         0.00000 
La          5.70000        -0.50000         0.00000 
Ce          4.10000        -2.50000         0.00000 
Pr          3.30000        -2.50000         0.00000 
Nd          2.50000        -2.50000         0.00000 
Pm          1.70000        -2.50000         0.00000 
Sm          0.90000        -2.50000         0.00000 
Eu          0.10000        -2.50000         0.00000 
Gd         -0.70000        -2.50000         0.00000 
Tb         -1.50000        -2.50000         0.00000 
Dy         -2.30000        -2.50000         0.00000 
Ho         -3.10000        -2.50000         0.00000 
Er         -3.90000        -2.50000         0.00000 
Tm         -4.70000        -2.50000         0.00000 
Yb         -5.50000        -2.50000         0.00000 
Lu         -6.30000        -2.50000         0.00000 
Hf          4.90000        -0.50000         0.00000 
Ta          4.10000        -0.50000         0.00000 
W           3.30000        -0.50000         0.00000 
Re          2.50000        -0.50000         0.00000 
Os          1.70000        -0.50000         0.00000 
Ir          0.90000        -0.50000         0.00000 
Pt          0.10000        -0.50000         0.00000 
Au         -0.70000        -0.50000         0.00000 
Hg         -1.50000        -0.50000         0.00000 
Tl         -2.30000        -0.50000         0.00000 
Pb         -3.10000        -0.50000         0.00000 
Bi         -3.90000        -0.50000         0.00000 
Po         -4.70000        -0.50000         0.00000 
At         -5.50000        -0.50000         0.00000 
Rn         -6.30000        -0.50000         0.00000 
Fr          7.30000        -1.30000         0.00000 
Ra          6.50000        -1.30000         0.00000 
Ac          5.70000        -1.30000         0.00000 
Th          4.10000        -3.30000         0.00000 
Pa          3.30000        -3.30000         0.00000 
U           2.50000        -3.30000         0.00000 
Np          1.70000        -3.30000         0.00000 
Pu          0.90000        -3.30000         0.00000 
Am          0.10000        -3.30000         0.00000 
Cm         -0.70000        -3.30000         0.00000 
Bk         -1.50000        -3.30000         0.00000 
Cf         -2.30000        -3.30000         0.00000 
Es         -3.10000        -3.30000         0.00000 
Fm         -3.90000        -3.30000         0.00000 
Md         -4.70000        -3.30000         0.00000 
No         -5.50000        -3.30000         0.00000 
Lr         -6.30000        -3.30000         0.00000 
Rf          4.90000        -1.30000         0.00000 
Db          4.10000        -1.30000         0.00000 
Sg          3.30000        -1.30000         0.00000 
Bh          2.50000        -1.30000         0.00000 
Hs          1.70000        -1.30000         0.00000 
Mt          0.90000        -1.30000         0.00000 

