$comment
xyz/table.xyz
$end

$molecule
0 1
1 7.3 3.5 0
2 -6.3 3.5 0
3 7.3 2.7 0
4 6.5 2.7 0
5 -2.3 2.7 0
6 -3.1 2.7 0
7 -3.9 2.7 0
8 -4.7 2.7 0
9 -5.5 2.7 0
10 -6.3 2.7 0
11 7.3 1.9 0
12 6.5 1.9 0
13 -2.3 1.9 0
14 -3.1 1.9 0
15 -3.9 1.9 0
16 -4.7 1.9 0
17 -5.5 1.9 0
18 -6.3 1.9 0
19 7.3 1.1 0
20 6.5 1.1 0
21 5.7 1.1 0
22 4.9 1.1 0
23 4.1 1.1 0
24 3.3 1.1 0
25 2.5 1.1 0
26 1.7 1.1 0
27 0.9 1.1 0
28 0.1 1.1 0
29 -0.7 1.1 0
30 -1.5 1.1 0
31 -2.3 1.1 0
32 -3.1 1.1 0
33 -3.9 1.1 0
34 -4.7 1.1 0
35 -5.5 1.1 0
36 -6.3 1.1 0
37 7.3 0.3 0
38 6.5 0.3 0
39 5.7 0.3 0
40 4.9 0.3 0
41 4.1 0.3 0
42 3.3 0.3 0
43 2.5 0.3 0
44 1.7 0.3 0
45 0.9 0.3 0
46 0.1 0.3 0
47 -0.7 0.3 0
48 -1.5 0.3 0
49 -2.3 0.3 0
50 -3.1 0.3 0
51 -3.9 0.3 0
52 -4.7 0.3 0
53 -5.5 0.3 0
54 -6.3 0.3 0
55 7.3 -0.5 0
56 6.5 -0.5 0
57 5.7 -0.5 0
58 4.1 -2.5 0
59 3.3 -2.5 0
60 2.5 -2.5 0
61 1.7 -2.5 0
62 0.9 -2.5 0
63 0.1 -2.5 0
64 -0.7 -2.5 0
65 -1.5 -2.5 0
66 -2.3 -2.5 0
67 -3.1 -2.5 0
68 -3.9 -2.5 0
69 -4.7 -2.5 0
70 -5.5 -2.5 0
71 -6.3 -2.5 0
72 4.9 -0.5 0
73 4.1 -0.5 0
74 3.3 -0.5 0
75 2.5 -0.5 0
76 1.7 -0.5 0
77 0.9 -0.5 0
78 0.1 -0.5 0
79 -0.7 -0.5 0
80 -1.5 -0.5 0
81 -2.3 -0.5 0
82 -3.1 -0.5 0
83 -3.9 -0.5 0
84 -4.7 -0.5 0
85 -5.5 -0.5 0
86 -6.3 -0.5 0
87 7.3 -1.3 0
88 6.5 -1.3 0
89 5.7 -1.3 0
90 4.1 -3.3 0
91 3.3 -3.3 0
92 2.5 -3.3 0
93 1.7 -3.3 0
94 0.9 -3.3 0
95 0.1 -3.3 0
96 -0.7 -3.3 0
97 -1.5 -3.3 0
98 -2.3 -3.3 0
99 -3.1 -3.3 0
100 -3.9 -3.3 0
101 -4.7 -3.3 0
102 -5.5 -3.3 0
103 -6.3 -3.3 0
104 4.9 -1.3 0
105 4.1 -1.3 0
106 3.3 -1.3 0
107 2.5 -1.3 0
108 1.7 -1.3 0
109 0.9 -1.3 0
$end

$rem
$end
