 $CONTRL COORD=CART UNITS=ANGS $END
 $DATA
xyz/table.xyz
Put symmetry info here

H      1.0     7.30000   3.50000   0.00000 
He     2.0    -6.30000   3.50000   0.00000 
Li     3.0     7.30000   2.70000   0.00000 
Be     4.0     6.50000   2.70000   0.00000 
B      5.0    -2.30000   2.70000   0.00000 
C      6.0    -3.10000   2.70000   0.00000 
N      7.0    -3.90000   2.70000   0.00000 
O      8.0    -4.70000   2.70000   0.00000 
F      9.0    -5.50000   2.70000   0.00000 
Ne    10.0    -6.30000   2.70000   0.00000 
Na    11.0     7.30000   1.90000   0.00000 
Mg    12.0     6.50000   1.90000   0.00000 
Al    13.0    -2.30000   1.90000   0.00000 
Si    14.0    -3.10000   1.90000   0.00000 
P     15.0    -3.90000   1.90000   0.00000 
S     16.0    -4.70000   1.90000   0.00000 
Cl    17.0    -5.50000   1.90000   0.00000 
Ar    18.0    -6.30000   1.90000   0.00000 
K     19.0     7.30000   1.10000   0.00000 
Ca    20.0     6.50000   1.10000   0.00000 
Sc    21.0     5.70000   1.10000   0.00000 
Ti    22.0     4.90000   1.10000   0.00000 
V     23.0     4.10000   1.10000   0.00000 
Cr    24.0     3.30000   1.10000   0.00000 
Mn    25.0     2.50000   1.10000   0.00000 
Fe    26.0     1.70000   1.10000   0.00000 
Co    27.0     0.90000   1.10000   0.00000 
Ni    28.0     0.10000   1.10000   0.00000 
Cu    29.0    -0.70000   1.10000   0.00000 
Zn    30.0    -1.50000   1.10000   0.00000 
Ga    31.0    -2.30000   1.10000   0.00000 
Ge    32.0    -3.10000   1.10000   0.00000 
As    33.0    -3.90000   1.10000   0.00000 
Se    34.0    -4.70000   1.10000   0.00000 
Br    35.0    -5.50000   1.10000   0.00000 
Kr    36.0    -6.30000   1.10000   0.00000 
Rb    37.0     7.30000   0.30000   0.00000 
Sr    38.0     6.50000   0.30000   0.00000 
Y     39.0     5.70000   0.30000   0.00000 
Zr    40.0     4.90000   0.30000   0.00000 
Nb    41.0     4.10000   0.30000   0.00000 
Mo    42.0     3.30000   0.30000   0.00000 
Tc    43.0     2.50000   0.30000   0.00000 
Ru    44.0     1.70000   0.30000   0.00000 
Rh    45.0     0.90000   0.30000   0.00000 
Pd    46.0     0.10000   0.30000   0.00000 
Ag    47.0    -0.70000   0.30000   0.00000 
Cd    48.0    -1.50000   0.30000   0.00000 
In    49.0    -2.30000   0.30000   0.00000 
Sn    50.0    -3.10000   0.30000   0.00000 
Sb    51.0    -3.90000   0.30000   0.00000 
Te    52.0    -4.70000   0.30000   0.00000 
I     53.0    -5.50000   0.30000   0.00000 
Xe    54.0    -6.30000   0.30000   0.00000 
Cs    55.0     7.30000  -0.50000   0.00000 
Ba    56.0     6.50000  -0.50000   0.00000 
La    57.0     5.70000  -0.50000   0.00000 
Ce    58.0     4.10000  -2.50000   0.00000 
Pr    59.0     3.30000  -2.50000   0.00000 
Nd    60.0     2.50000  -2.50000   0.00000 
Pm    61.0     1.70000  -2.50000   0.00000 
Sm    62.0     0.90000  -2.50000   0.00000 
Eu    63.0     0.10000  -2.50000   0.00000 
Gd    64.0    -0.70000  -2.50000   0.00000 
Tb    65.0    -1.50000  -2.50000   0.00000 
Dy    66.0    -2.30000  -2.50000   0.00000 
Ho    67.0    -3.10000  -2.50000   0.00000 
Er    68.0    -3.90000  -2.50000   0.00000 
Tm    69.0    -4.70000  -2.50000   0.00000 
Yb    70.0    -5.50000  -2.50000   0.00000 
Lu    71.0    -6.30000  -2.50000   0.00000 
Hf    72.0     4.90000  -0.50000   0.00000 
Ta    73.0     4.10000  -0.50000   0.00000 
W     74.0     3.30000  -0.50000   0.00000 
Re    75.0     2.50000  -0.50000   0.00000 
Os    76.0     1.70000  -0.50000   0.00000 
Ir    77.0     0.90000  -0.50000   0.00000 
Pt    78.0     0.10000  -0.50000   0.00000 
Au    79.0    -0.70000  -0.50000   0.00000 
Hg    80.0    -1.50000  -0.50000   0.00000 
Tl    81.0    -2.30000  -0.50000   0.00000 
Pb    82.0    -3.10000  -0.50000   0.00000 
Bi    83.0    -3.90000  -0.50000   0.00000 
Po    84.0    -4.70000  -0.50000   0.00000 
At    85.0    -5.50000  -0.50000   0.00000 
Rn    86.0    -6.30000  -0.50000   0.00000 
Fr    87.0     7.30000  -1.30000   0.00000 
Ra    88.0     6.50000  -1.30000   0.00000 
Ac    89.0     5.70000  -1.30000   0.00000 
Th    90.0     4.10000  -3.30000   0.00000 
Pa    91.0     3.30000  -3.30000   0.00000 
U     92.0     2.50000  -3.30000   0.00000 
Np    93.0     1.70000  -3.30000   0.00000 
Pu    94.0     0.90000  -3.30000   0.00000 
Am    95.0     0.10000  -3.30000   0.00000 
Cm    96.0    -0.70000  -3.30000   0.00000 
Bk    97.0    -1.50000  -3.30000   0.00000 
Cf    98.0    -2.30000  -3.30000   0.00000 
Es    99.0    -3.10000  -3.30000   0.00000 
Fm   100.0    -3.90000  -3.30000   0.00000 
Md   101.0    -4.70000  -3.30000   0.00000 
No   102.0    -5.50000  -3.30000   0.00000 
Lr   103.0    -6.30000  -3.30000   0.00000 
Rf   104.0     4.90000  -1.30000   0.00000 
Db   105.0     4.10000  -1.30000   0.00000 
Sg   106.0     3.30000  -1.30000   0.00000 
Bh   107.0     2.50000  -1.30000   0.00000 
Hs   108.0     1.70000  -1.30000   0.00000 
Mt   109.0     0.90000  -1.30000   0.00000 
 $END


