$comment
gpr/estradiol.gpr
$end

$molecule
0 1
6 -2.06396 0.62001 1.98508
6 -2.17693 0.66857 0.43813
6 -1.59826 -0.55474 -0.29099
6 -1.47557 1.92656 -0.11653
6 -3.66127 0.5173 0.04937
6 -0.0939 -0.71843 0.00079
6 -2.54096 -1.70039 0.12152
6 0.0574 1.81971 0.08719
8 -3.82899 0.8921 -1.32398
6 -3.92403 -1.0033 0.21776
6 0.6337 0.52878 -0.55546
6 0.48366 -1.95326 -0.70976
6 2.13196 0.37729 -0.40338
6 1.9337 -2.11691 -0.22027
6 2.70846 -0.82554 -0.25566
6 3.00361 1.57001 -0.4431
6 4.17187 -0.92998 -0.12423
6 4.33016 1.47415 -0.32468
6 4.949 0.15349 -0.15213
8 6.27026 0.0305 -0.02889
1 -1.02056 0.56968 2.32164
1 -2.51312 1.53609 2.39678
1 -2.60511 -0.24081 2.40057
1 -1.72488 -0.40564 -1.3748
1 -1.67615 2.01178 -1.19521
1 -1.86232 2.82483 0.38818
1 -4.32401 1.13015 0.68011
1 0.08123 -0.8267 1.08052
1 -2.54152 -2.5088 -0.62549
1 -2.24044 -2.10862 1.09804
1 0.48987 2.70725 -0.39526
1 0.31345 1.84518 1.15586
1 -4.7315 0.77184 -1.59685
1 -4.36854 -1.20926 1.20349
1 -4.60723 -1.36291 -0.56652
1 0.42816 0.5886 -1.63521
1 -0.08869 -2.8579 -0.45486
1 0.46111 -1.80358 -1.79992
1 1.91437 -2.46888 0.82236
1 2.43629 -2.87596 -0.83872
1 2.5941 2.56718 -0.58579
1 4.6314 -1.90938 0.00194
1 4.94459 2.37304 -0.36434
1 6.6996 0.87688 -0.06732
$end

$rem
$end
