$comment
gpr/estradiol.gpr
$end

$molecule
0 1
6 -2.06396 0.620007 1.98508
6 -2.17693 0.668575 0.438133
6 -1.59826 -0.554736 -0.290988
6 -1.47557 1.92656 -0.116528
6 -3.66127 0.517301 0.0493684
6 -0.0938958 -0.718435 0.000790372
6 -2.54096 -1.70039 0.121522
6 0.0573958 1.81971 0.087193
8 -3.82899 0.892095 -1.32398
6 -3.92403 -1.0033 0.217763
6 0.633697 0.528779 -0.555461
6 0.48366 -1.95326 -0.709761
6 2.13196 0.377291 -0.403377
6 1.9337 -2.11691 -0.220266
6 2.70846 -0.825539 -0.255656
6 3.00361 1.57001 -0.443101
6 4.17187 -0.929979 -0.124234
6 4.33016 1.47415 -0.324678
6 4.949 0.153492 -0.152126
8 6.27026 0.0305021 -0.0288944
1 -1.02056 0.569682 2.32164
1 -2.51312 1.53609 2.39678
1 -2.60511 -0.24081 2.40057
1 -1.72488 -0.405641 -1.3748
1 -1.67615 2.01178 -1.19521
1 -1.86232 2.82483 0.388182
1 -4.32401 1.13015 0.680114
1 0.0812255 -0.826696 1.08052
1 -2.54152 -2.5088 -0.625494
1 -2.24044 -2.10862 1.09804
1 0.489869 2.70725 -0.395257
1 0.313452 1.84518 1.15586
1 -4.7315 0.771837 -1.59685
1 -4.36854 -1.20926 1.20349
1 -4.60723 -1.36291 -0.56652
1 0.428158 0.588598 -1.63521
1 -0.0886909 -2.8579 -0.454862
1 0.461114 -1.80358 -1.79992
1 1.91437 -2.46888 0.822359
1 2.43629 -2.87596 -0.838725
1 2.5941 2.56718 -0.585795
1 4.6314 -1.90938 0.00194363
1 4.94459 2.37304 -0.364344
1 6.6996 0.876876 -0.0673166
$end

$rem
$end
