 $CONTRL COORD=CART UNITS=ANGS $END
 $DATA
gpr/estradiol.gpr
Put symmetry info here

C      6.0    -2.06396   0.62001   1.98508 
C      6.0    -2.17693   0.66857   0.43813 
C      6.0    -1.59826  -0.55474  -0.29099 
C      6.0    -1.47557   1.92656  -0.11653 
C      6.0    -3.66127   0.51730   0.04937 
C      6.0    -0.09390  -0.71843   0.00079 
C      6.0    -2.54096  -1.70039   0.12152 
C      6.0     0.05740   1.81971   0.08719 
O      8.0    -3.82899   0.89210  -1.32398 
C      6.0    -3.92403  -1.00330   0.21776 
C      6.0     0.63370   0.52878  -0.55546 
C      6.0     0.48366  -1.95326  -0.70976 
C      6.0     2.13196   0.37729  -0.40338 
C      6.0     1.93370  -2.11691  -0.22027 
C      6.0     2.70846  -0.82554  -0.25566 
C      6.0     3.00361   1.57001  -0.44310 
C      6.0     4.17187  -0.92998  -0.12423 
C      6.0     4.33016   1.47415  -0.32468 
C      6.0     4.94900   0.15349  -0.15213 
O      8.0     6.27026   0.03050  -0.02889 
H      1.0    -1.02056   0.56968   2.32164 
H      1.0    -2.51312   1.53609   2.39678 
H      1.0    -2.60511  -0.24081   2.40057 
H      1.0    -1.72488  -0.40564  -1.37480 
H      1.0    -1.67615   2.01178  -1.19521 
H      1.0    -1.86232   2.82483   0.38818 
H      1.0    -4.32401   1.13015   0.68011 
H      1.0     0.08123  -0.82670   1.08052 
H      1.0    -2.54152  -2.50880  -0.62549 
H      1.0    -2.24044  -2.10862   1.09804 
H      1.0     0.48987   2.70725  -0.39526 
H      1.0     0.31345   1.84518   1.15586 
H      1.0    -4.73150   0.77184  -1.59685 
H      1.0    -4.36854  -1.20926   1.20349 
H      1.0    -4.60723  -1.36291  -0.56652 
H      1.0     0.42816   0.58860  -1.63521 
H      1.0    -0.08869  -2.85790  -0.45486 
H      1.0     0.46111  -1.80358  -1.79992 
H      1.0     1.91437  -2.46888   0.82236 
H      1.0     2.43629  -2.87596  -0.83872 
H      1.0     2.59410   2.56718  -0.58579 
H      1.0     4.63140  -1.90938   0.00194 
H      1.0     4.94459   2.37304  -0.36434 
H      1.0     6.69960   0.87688  -0.06732 
 $END


