 $CONTRL COORD=CART UNITS=ANGS $END
 $DATA
mpqc/b2h6.mpqc
Put symmetry info here

H      1.0     1.03691   0.00000   1.46251 
H      1.0    -1.03691  -0.00000   1.46251 
B      5.0     0.00000  -0.00000   0.88903 
H      1.0    -0.00000   0.96960   0.00000 
H      1.0    -0.00000  -0.96960   0.00000 
B      5.0     0.00000  -0.00000  -0.88903 
H      1.0     1.03691   0.00000  -1.46251 
H      1.0    -1.03691   0.00000  -1.46251 
 $END


