$comment
mpqc/b2h6.mpqc
$end

$molecule
0 1
1 1.03691 0 1.46251
1 -1.03691 -0 1.46251
5 0 -0 0.889028
1 -0 0.969603 0
1 -0 -0.969603 0
5 0 -0 -0.889028
1 1.03691 0 -1.46251
1 -1.03691 0 -1.46251
$end

$rem
$end
