%cmem=20000000
%#Put Keywords Here, check Charge and Multiplicity

XX mpqc/b2h6.mpqc

  0  1
H           1.03691         0.00000         1.46251 
H          -1.03691        -0.00000         1.46251 
B           0.00000        -0.00000         0.88903 
H          -0.00000         0.96960         0.00000 
H          -0.00000        -0.96960         0.00000 
B           0.00000        -0.00000        -0.88903 
H           1.03691         0.00000        -1.46251 
H          -1.03691         0.00000        -1.46251 

