$comment
mpqc/h2o.mpqc
$end

$molecule
0 1
8 0 0 0.369373
1 0.783976 0 -0.184686
1 -0.783976 -0 -0.184686
$end

$rem
$end
