%cmem=20000000
%#Put Keywords Here, check Charge and Multiplicity

XX mpqc/h2o.mpqc

  0  1
O           0.00000         0.00000         0.36937 
H           0.78398         0.00000        -0.18469 
H          -0.78398        -0.00000        -0.18469 

