 $CONTRL COORD=CART UNITS=ANGS $END
 $DATA
mpqc/h2o.mpqc
Put symmetry info here

O      8.0     0.00000   0.00000   0.36937 
H      1.0     0.78398   0.00000  -0.18469 
H      1.0    -0.78398  -0.00000  -0.18469 
 $END


