%chk=heterocycle-05
# B3LYP/6-31G* Opt

 /Users/ghutchis/heterocycle-05.mol2

0  1
C          -3.76740         0.48370        -0.04140 
C          -4.62140        -0.61720        -0.08280 
C          -2.40040        -0.00120        -0.03430 
C          -2.50560        -1.44450        -0.07260 
C          -1.15030         0.60640        -0.00090 
C          -0.00410        -0.19070        -0.00770 
C          -0.11740        -1.59490        -0.04500 
C          -1.34630        -2.23530        -0.07800 
N          -3.85540        -1.79510        -0.06170 
O          -4.05630         1.82040        -0.00470 
H          -5.70980        -0.65860        -0.09920 
H          -1.07690         1.70390         0.03010 
C           1.31120         0.50630         0.02540 
Br          0.79130        -2.21660        -0.04830 
H          -1.41010        -3.33100        -0.10620 
H          -4.20660        -2.69260        -0.26320 
C           2.52220        -0.40000         0.00310 
H           1.36380         1.20100        -0.86070 
H           1.35120         1.14010         0.95670 
S           3.96810         0.46330         0.00900 
H           2.46580        -1.09800         0.88440 
H           2.45710        -1.06740        -0.90110 
O           4.21110         1.12070        -1.17690 
O           4.22350         1.08870         1.20990 
O           5.00770        -0.83030        -0.00890 
H           5.94320        -0.65580         0.04240 
C          -5.45150         2.11700        -0.00050 
H          -5.48320         3.23450         0.03670 
H          -5.93420         1.73480        -0.93240 
Hi(Iso=2)  -5.94280         1.67400         0.89960 

--Link1--
%Chk=heterocycle-05
# B3LYP/6-31G* Geom=Check Guess=Read Freq Raman

Frequencies at STP


