$comment
Aromatic Test for Open Babel
$end

$molecule
0 1
6 0.6228 0.6666 0.1056
6 1.5924 -0.2475 0.2041
6 -0.7285 0.0995 0.1071
6 -0.7466 -1.2336 0.1472
6 5.0757 1.34 0.3648
6 5.8814 0.2825 0.2367
6 5.2756 -1.0486 0.0875
6 3.9476 -1.1925 0.0777
6 3.0535 -0.0291 0.2147
6 3.6131 1.178 0.3546
6 7.3459 0.4328 0.2468
7 8.1383 -0.5564 0.1745
6 9.2458 1.263 0.334
7 9.4356 0.0111 0.2344
16 0.906 -1.9031 0.2452
8 0.8589 1.9705 -0.0336
6 -0.3229 2.6613 -0.4594
6 -1.5231 2.2148 0.394
8 -1.833 0.8456 0.1065
7 7.9607 1.609 0.343
6 -1.9718 -2.1059 0.1766
6 -3.1905 -1.314 0.0644
6 -4.1934 -0.654 -0.0288
6 -5.4062 0.1506 -0.1464
6 -6.6818 -0.6915 0.2144
53 -5.2493 1.0537 0.4856
14 -6.8934 -1.5654 -0.5106
37 -7.5642 -0.0087 0.2444
8 -7.865 -2.0694 -0.2058
8 -7.0205 -1.1265 -1.5424
8 -6.0314 -2.3022 -0.5358
1 5.4954 2.3088 0.4751
1 5.8984 -1.9023 -0.0132
1 3.529 -2.1619 -0.0308
1 2.9922 2.0325 0.4601
1 10.0374 1.9669 0.4036
1 -0.1746 3.745 -0.3427
1 -0.5205 2.4262 -1.5157
1 -1.2729 2.3176 1.4602
1 -2.3939 2.8442 0.1584
1 7.5606 2.5179 0.4058
1 -1.9269 -2.8148 -0.6633
1 -1.9934 -2.6407 1.1377
1 -5.5937 0.4757 -1.1804
1 -6.4912 -1.1532 1.1945
1 -7.7526 -3.0524 -0.2411
1 -7.985 -1.0391 -1.7478
1 -6.3862 -3.2264 -0.5255
$end

$rem
$end
