$comment
ACETYLCHOLINE & stuff
$end

$molecule
0 1
7 2.5762 -0.3621 0
6 1.2862 -1.2032 0
6 3.87 -1.2032 0
6 2.5762 1.3051 0
6 3.87 0.4715 0
6 0 -0.3621 0
8 -1.2862 -1.2032 0
6 -2.5762 -0.3621 0
6 -3.87 -1.2032 0
8 -2.5762 1.3051 0
$end

$rem
$end
