$comment
479                                                                             
$end

$molecule
0 1
6 -0.0187 1.5258 0.0104
6 0.0021 -0.0041 0.002
6 1.3951 2.0474 -0.0003
6 0.7219 -0.5174 -1.2277
33 0.8 -0.5143 1.1285
6 -1.4017 -0.5494 0.0571
6 2.032 2.293 -1.2021
6 2.0531 2.2856 1.1921
8 0.4102 -0.3343 -2.3849
7 1.792 -1.2264 -0.7688
6 1.8329 -1.2218 0.5951
6 -1.6236 -1.9178 0.0595
6 -2.4842 0.3085 0.1118
6 3.3291 2.7715 -1.2119
6 3.3498 2.764 1.1823
8 2.6878 -1.7814 1.2533
6 -2.932 -2.3742 0.1117
7 -3.7152 -0.1612 0.1611
6 3.9887 3.0047 -0.0199
6 -3.9639 -1.4564 0.1592
1 -0.5459 1.8868 -0.8726
1 -0.5289 1.8773 0.9072
1 0.6235 -0.3729 2.0717
1 1.5166 2.1108 -2.1335
1 1.5538 2.0982 2.1312
1 2.4383 -1.6747 -1.3364
1 -0.7971 -2.6119 0.0213
1 -2.3196 1.3759 0.1145
1 3.827 2.9628 -2.151
1 3.8636 2.9504 2.1138
1 -3.1419 -3.4336 0.1147
1 5.0021 3.3781 -0.0276
1 -4.9857 -1.8037 0.1999
$end

$rem
$end
