 $CONTRL COORD=CART UNITS=ANGS $END
 $DATA
ACETYLCHOLINE & stuff
Put symmetry info here

N      7.0     2.57620  -0.36210   0.00000 
C      6.0     1.28620  -1.20320   0.00000 
C      6.0     3.87000  -1.20320   0.00000 
C      6.0     2.57620   1.30510   0.00000 
C      6.0     3.87000   0.47150   0.00000 
C      6.0     0.00000  -0.36210   0.00000 
O      8.0    -1.28620  -1.20320   0.00000 
C      6.0    -2.57620  -0.36210   0.00000 
C      6.0    -3.87000  -1.20320   0.00000 
O      8.0    -2.57620   1.30510   0.00000 
 $END


